17008
1 0 1 0 0 1 0 1 0 1 1 1 0 0 1 0 0 0 0 1 1 0 0 0 1 0 0 0 0 0 
20 11 20 2 20 5 2 9 14 0 9 20 20 20 19 14 14 0 5 11 2 0 5 19 5 20 19 24 5 24 5 11 20 11 20 20 24 24 0 14 0 14 24 10 24 14 0 20 11 14 5 14 14 5 20 20 2 11 0 14 0 5 20 11 11 11 9 0 5 9 20 20 11 0 24 20 9 20 14 24 20 7 20 0 19 0 2 7 20 5 2 24 7 11 7 5 2 2 11 20 20 7 14 11 2 5 7 11 14 14 14 14 0 11 11 11 24 24 24 24 5 20 11 20 20 0 5 9 0 5 0 11 24 5 20 14 7 5 20 0 0 14 14 14 14 11 11 5 0 24 
